
(set-logic BV)

(define-fun shr1 ((x (BitVec 64))) (BitVec 64) (bvlshr x #x0000000000000001))
(define-fun shr4 ((x (BitVec 64))) (BitVec 64) (bvlshr x #x0000000000000004))
(define-fun shr16 ((x (BitVec 64))) (BitVec 64) (bvlshr x #x0000000000000010))
(define-fun shl1 ((x (BitVec 64))) (BitVec 64) (bvshl x #x0000000000000001))
(define-fun if0 ((x (BitVec 64)) (y (BitVec 64)) (z (BitVec 64))) (BitVec 64) (ite (= x #x0000000000000001) y z))
(define-fun func26  ((A (BitVec 64)) (B (BitVec 64)) (C (BitVec 64)) (D (BitVec 64)) ) (BitVec 64) (bvand (bvlshr (bvlshr C  D ) B ) A ))
(define-fun func27  ((A (BitVec 64)) (B (BitVec 64)) (C (BitVec 64)) ) (BitVec 64) (bvand (bvlshr B  C ) A ))
(define-fun func28  ((A (BitVec 64)) (B (BitVec 64)) ) (BitVec 64) (bvand (bvlshr B  #x0000000000000001 ) A ))
(define-fun func29  ((A (BitVec 64)) (B (BitVec 64)) ) (BitVec 64) (bvand (bvlshr B  #x0000000000000010 ) A ))
(define-fun func30  ((A (BitVec 64)) (B (BitVec 64)) ) (BitVec 64) (bvand (bvlshr B  #x0000000000000004 ) A ))
(define-fun func31  ((A (BitVec 64)) (B (BitVec 64)) ) (BitVec 64) (bvand (bvlshr A  B ) #x0000000000000001 ))
(define-fun func32  ((A (BitVec 64)) ) (BitVec 64) (bvand A  #x0000000000000001 ))
(define-fun func33  ((A (BitVec 64)) (B (BitVec 64)) (C (BitVec 64)) (D (BitVec 64)) ) (BitVec 64) (bvlshr (bvlshr (bvlshr C  D ) B ) A ))
(define-fun func34  ((A (BitVec 64)) (B (BitVec 64)) (C (BitVec 64)) ) (BitVec 64) (bvlshr (bvlshr (bvlshr C  #x0000000000000010 ) B ) A ))
(define-fun func35  ((A (BitVec 64)) (B (BitVec 64)) (C (BitVec 64)) ) (BitVec 64) (bvlshr (bvlshr B  C ) A ))
(define-fun func36  ((A (BitVec 64)) (B (BitVec 64)) ) (BitVec 64) (bvlshr (bvlshr B  #x0000000000000010 ) A ))
(define-fun func37  ((A (BitVec 64)) (B (BitVec 64)) ) (BitVec 64) (bvlshr (bvlshr B  #x0000000000000004 ) A ))
(define-fun func38  ((A (BitVec 64)) (B (BitVec 64)) ) (BitVec 64) (bvlshr (bvlshr B  #x0000000000000001 ) A ))
(define-fun func39  ((A (BitVec 64)) (B (BitVec 64)) ) (BitVec 64) (bvlshr (bvlshr A  B ) #x0000000000000001 ))
(define-fun func40  ((A (BitVec 64)) (B (BitVec 64)) ) (BitVec 64) (bvlshr (bvlshr A  B ) #x0000000000000004 ))
(define-fun func41  ((A (BitVec 64)) (B (BitVec 64)) ) (BitVec 64) (bvlshr A  B ))
(define-fun func42  ((A (BitVec 64)) (B (BitVec 64)) (C (BitVec 64)) ) (BitVec 64) (bvlshr (bvshl B  C ) A ))
(define-fun func43  ((A (BitVec 64)) (B (BitVec 64)) ) (BitVec 64) (bvlshr (bvshl B  #x0000000000000001 ) A ))
(define-fun func44  ((A (BitVec 64)) (B (BitVec 64)) (C (BitVec 64)) ) (BitVec 64) (bvlshr (bvadd B  C ) A ))
(define-fun func45  ((A (BitVec 64)) (B (BitVec 64)) ) (BitVec 64) (bvlshr (bvnot B ) A ))
(define-fun func46  ((A (BitVec 64)) ) (BitVec 64) (bvlshr (bvnot #x0000000000000000 ) A ))
(define-fun func47  ((A (BitVec 64)) ) (BitVec 64) (bvlshr (bvnot A ) #x0000000000000010 ))
(define-fun func48  ((A (BitVec 64)) (B (BitVec 64)) (C (BitVec 64)) ) (BitVec 64) (bvor (bvlshr B  C ) A ))
(define-fun func49  ((A (BitVec 64)) ) (BitVec 64) (bvor A  #x0000000000000001 ))
(define-fun func50  ((A (BitVec 64)) (B (BitVec 64)) (C (BitVec 64)) ) (BitVec 64) (bvshl (bvlshr B  C ) A ))
(define-fun func51  ((A (BitVec 64)) (B (BitVec 64)) ) (BitVec 64) (bvshl (bvlshr B  #x0000000000000001 ) A ))
(define-fun func52  ((A (BitVec 64)) (B (BitVec 64)) ) (BitVec 64) (bvshl (bvlshr A  B ) #x0000000000000001 ))
(define-fun func54  ((A (BitVec 64)) (B (BitVec 64)) (C (BitVec 64)) ) (BitVec 64) (bvshl (bvshl B  C ) A ))
(define-fun func55  ((A (BitVec 64)) (B (BitVec 64)) ) (BitVec 64) (bvshl (bvshl B  #x0000000000000001 ) A ))
(define-fun func56  ((A (BitVec 64)) (B (BitVec 64)) ) (BitVec 64) (bvshl (bvshl A  B ) #x0000000000000001 ))
(define-fun func57  ((A (BitVec 64)) (B (BitVec 64)) ) (BitVec 64) (bvshl (bvnot B ) A ))
(define-fun func58  ((A (BitVec 64)) ) (BitVec 64) (bvshl (bvnot A ) #x0000000000000001 ))
(define-fun func59  ((A (BitVec 64)) (B (BitVec 64)) (C (BitVec 64)) ) (BitVec 64) (bvadd (bvlshr B  C ) A ))
(define-fun func60  ((A (BitVec 64)) ) (BitVec 64) (bvadd A  #x0000000000000001 ))
(define-fun func61  ((A (BitVec 64)) (B (BitVec 64)) (C (BitVec 64)) ) (BitVec 64) (bvadd (bvshl B  C ) A ))
(define-fun func62  ((A (BitVec 64)) (B (BitVec 64)) ) (BitVec 64) (bvadd (bvshl B  #x0000000000000001 ) A ))
(define-fun func63  ((A (BitVec 64)) ) (BitVec 64) (bvnot (bvshl A  #x0000000000000001 )))
(synth-fun f ( (x (BitVec 64))) (BitVec 64)
(
(Start (BitVec 64) (
   #x0000000000000000
   #x0000000000000001
   x
   (func27 Start Start Start)
   (func29 Start Start)
   (func30 Start Start)
   (func32 Start)
   (func34 Start Start Start)
   (func37 Start Start)
   (func39 Start Start)
   (func40 Start Start)
   (func43 Start Start)
   (func44 Start Start Start)
   (func50 Start Start Start)
   (func52 Start Start)
   (func56 Start Start)
   (func58 Start)
   (func59 Start Start Start)
   (func61 Start Start Start)
   (shl1 Start)
   (bvxor Start Start)
   (if0 Start Start Start)
))
))
(constraint (= (f #x369544b9c90e11ec) #x3795e6bdcd0e11ee))
(constraint (= (f #x678e394a6b1f4a0f) #x678e39ca7b1fea0f))
(constraint (= (f #xe0f23eeb57ae580c) #xe0f33fff5fbf780c))
(constraint (= (f #x933101b0124a05a4) #x93b981b8124a05a4))
(constraint (= (f #x84b25f021fbf6a24) #x84b35f821ffffb34))
(constraint (= (f #x826fe5b57ca0d8f4) #xfbec80d2541af938))
(constraint (= (f #x1f219e88b3c56cdc) #xff06f30bba61d499))
(constraint (= (f #x2ac2de0636be85d1) #xfea9e90fce4a0bd1))
(constraint (= (f #x85ef829efeafe5d3) #xfbd083eb080a80d1))
(constraint (= (f #x446fcc726d7873bf) #xfddc819c6c943c61))
(constraint (= (f #x0000000000340f2f) #x0000000000340f2f))
(constraint (= (f #x0000000000316701) #x0000000000316701))
(constraint (= (f #x00000000002bb9a2) #x00000000002bb9a2))
(constraint (= (f #x00000000003e3888) #x00000000003e3888))
(constraint (= (f #x00000000003dbc41) #x00000000003dbc41))
(constraint (= (f #x00000000002ba0d8) #xfffffffffffea2f9))
(constraint (= (f #x00000000002353b2) #xfffffffffffee562))
(constraint (= (f #x00000000003c5d3a) #xfffffffffffe1d16))
(constraint (= (f #x000000000020d413) #xfffffffffffef95f))
(constraint (= (f #x000000000023693d) #xfffffffffffee4b6))
(constraint (= (f #x00000000001d2d2c) #x00000000001dad2c))
(constraint (= (f #x00000000001149e4) #x000000000011c9e6))
(constraint (= (f #x000000000017838b) #x000000000017838f))
(constraint (= (f #x000000000019db64) #x000000000019dff6))
(constraint (= (f #x00000000001cc76e) #x00000000001ce77f))
(constraint (= (f #x00000000001d2e31) #xffffffffffffffff))
(constraint (= (f #x00000000001a8f58) #xffffffffffffffff))
(constraint (= (f #x000000000015a239) #xffffffffffffffff))
(constraint (= (f #x00000000001a8a75) #xffffffffffffffff))
(constraint (= (f #x00000000001baa50) #xffffffffffffffff))
(constraint (= (f #x0000000000000001) #xffffffffffffffff))
(check-synth)
